Minimize
  x1 + x2 + x3 + x4 + x5 + x6 + x7 + x8 + x9 + x10 + x11 + x12 + x13 + x14
   + x15
Subject To
 R0: x2 + x4 + x10 + x11 + x13 + x14 >= 1
 R1: x1 + x5 + x7 + x8 + x15 >= 1
 R2: x3 + x4 + x6 + x8 + x9 + x10 + x11 + x12 >= 1
 R3: x3 + x6 + x9 + x12 >= 1
 R4: x1 + x5 + x7 >= 1
 R5: x8 + x9 >= 1
 R6: x3 + x6 + x9 + x12 >= 1
 R7: x7 + x15 >= 1
 R8: x2 + x3 + x6 + x9 + x10 + x11 + x12 >= 1
 R9: x1 + x3 + x5 + x6 + x7 + x8 + x12 + x15 >= 1
 R10: x3 + x4 + x6 + x10 + x11 + x12 + x13 + x15 >= 1
 R11: x1 + x5 + x7 + x8 >= 1
 R12: x2 + x3 + x6 + x9 + x10 + x11 + x12 >= 1
 R13: x3 + x6 + x8 + x9 + x10 + x11 + x12 >= 1
 R14: x1 + x3 + x5 + x6 + x7 + x8 + x12 >= 1
 R15: x1 + x3 + x4 + x5 + x6 + x7 + x8 + x9 + x10 + x11 + x12 + x15 >= 1
 R16: x2 + x3 + x6 + x9 + x12 >= 1
 R17: x1 + x5 + x7 + x8 >= 1
 R18: x1 + x5 + x7 + x8 >= 1
 R19: x1 + x5 + x13 + x14 >= 1
 R20: x1 + x3 + x6 + x7 + x8 >= 1
 R21: x4 + x10 + x11 + x13 + x14 >= 1
 R22: x13 >= 1
 R23: x3 + x4 + x6 + x8 + x9 + x10 + x11 + x12 + x13 + x14 + x15 >= 1
 R24: x1 + x5 >= 1
 R25: x3 + x4 + x6 + x7 + x8 + x9 + x10 + x11 + x12 >= 1
 R26: x3 + x4 + x6 + x8 + x9 + x10 + x11 + x12 >= 1
 R27: x13 + x14 >= 1
 R28: x1 + x5 + x7 + x8 + x15 >= 1
 R29: x1 + x5 + x7 + x8 + x15 >= 1
 R30: x1 + x2 + x3 + x4 + x5 + x7 + x8 + x15 >= 1
 R31: x1 + x5 + x7 + x8 + x15 >= 1
 R32: x13 + x14 >= 1
 R33: x1 + x5 >= 1
 R34: x3 + x6 + x8 + x9 + x10 + x11 + x12 >= 1
 R35: x1 + x5 + x7 + x8 >= 1
 R36: x1 + x5 >= 1
 R37: x4 + x10 + x11 + x13 + x14 >= 1
 R38: x2 + x4 + x13 + x14 >= 1
 R39: x4 + x13 + x14 >= 1
 R40: x3 + x4 + x6 + x8 + x9 + x10 + x11 + x12 >= 1
 R41: x3 + x4 + x6 + x8 + x9 + x10 + x11 + x12 >= 1
 R42: x4 + x10 + x11 + x13 + x14 >= 1
 R43: x4 + x10 + x11 + x13 + x14 >= 1
 R44: x9 >= 1
 R45: x1 + x5 + x7 + x8 + x15 >= 1
 R46: x3 + x4 + x6 + x8 + x9 + x10 + x11 + x12 >= 1
 R47: x1 + x5 + x7 >= 1
 R48: x2 + x3 + x6 + x9 + x10 + x11 + x12 >= 1
 R49: x3 + x4 + x6 + x8 + x9 + x10 + x11 + x12 + x13 + x14 >= 1
 R50: x13 + x14 >= 1
 R51: x7 + x13 >= 1
 R52: x7 + x14 >= 1
 R53: x4 + x7 + x10 + x11 >= 1
 R54: x1 + x5 + x7 + x8 + x15 >= 1
 R55: x3 + x4 + x6 + x8 + x9 + x10 + x11 + x12 >= 1
 R56: x6 + x9 + x12 >= 1
 R57: x1 + x5 + x13 + x14 >= 1
 R58: x1 + x5 + x7 + x8 + x15 >= 1
 R59: x1 + x5 + x7 + x8 + x15 >= 1
 R60: x1 + x3 + x5 + x6 + x7 + x8 + x9 + x12 + x15 >= 1
 R61: x4 + x13 + x14 >= 1
 R62: x1 + x2 + x4 + x5 + x8 + x13 + x14 >= 1
 R63: x1 + x3 + x5 + x6 + x7 + x8 + x9 + x10 + x11 + x12 + x15 >= 1
 R64: x1 + x3 + x5 + x6 + x7 + x8 + x9 + x10 + x11 + x12 + x15 >= 1
 R65: x9 + x12 >= 1
 R66: x2 + x4 + x13 + x14 >= 1
 R67: x2 + x3 + x6 + x8 + x9 + x10 + x11 + x12 >= 1
 R68: x3 + x4 + x6 + x7 + x8 + x9 + x10 + x11 + x12 >= 1
 R69: x2 + x3 + x6 + x8 + x9 + x10 + x11 + x12 >= 1
 R70: x3 + x4 + x6 + x8 + x9 + x10 + x11 + x12 >= 1
 R71: x4 + x10 + x11 + x13 + x14 >= 1
 R72: x1 + x3 + x5 + x6 + x7 + x8 + x12 + x15 >= 1
 R73: x8 + x9 >= 1
 R74: x1 + x5 + x7 + x8 >= 1
 R75: x1 + x5 >= 1
 R76: x3 + x4 + x6 + x8 + x9 + x10 + x11 + x12 >= 1
 R77: x3 + x4 + x6 + x8 + x9 + x10 + x11 + x12 >= 1
 R78: x2 + x3 + x4 + x6 + x8 + x9 + x10 + x11 + x12 >= 1
 R79: x1 + x3 + x5 + x6 + x7 + x8 + x12 + x15 >= 1
 R80: x1 + x5 + x7 + x15 >= 1
 R81: x3 + x6 + x9 + x12 >= 1
 R82: x2 + x3 + x4 + x6 + x8 + x9 + x10 + x11 + x12 >= 1
 R83: x4 + x13 + x14 >= 1
 R84: x1 + x3 + x4 + x6 + x7 + x8 + x9 + x10 + x11 + x12 >= 1
 R85: x2 + x3 + x4 + x6 + x8 + x9 + x10 + x11 + x12 >= 1
 R86: x1 + x5 + x7 + x8 + x15 >= 1
 R87: x1 + x5 + x7 + x8 + x15 >= 1
 R88: x3 + x4 + x6 + x8 + x9 + x10 + x11 + x12 + x13 + x14 >= 1
 R89: x1 + x3 + x5 + x6 + x7 + x8 + x9 + x10 + x11 + x12 >= 1
 R90: x8 >= 1
 R91: x4 + x7 >= 1
 R92: x1 + x5 + x7 + x8 + x15 >= 1
 R93: x3 + x4 + x6 + x8 + x9 + x10 + x11 + x12 >= 1
 R94: x4 + x10 + x11 + x13 + x14 >= 1
 R95: x3 + x6 + x8 + x12 >= 1
 R96: x2 + x3 + x6 + x9 + x10 + x11 + x12 >= 1
 R97: x1 + x5 + x7 + x8 + x15 >= 1
 R98: x3 + x4 + x6 + x8 + x9 + x10 + x11 + x12 >= 1
 R99: x1 + x3 + x5 + x6 + x7 + x8 + x12 + x15 >= 1
Bounds
Binaries
 x1 x2 x3 x4 x5 x6 x7 x8 x9 x10 x11 x12 x13 x14 x15
End
